NAME 
ROWS
 N  OBJ
 L  R0      
 L  R1      
 E  R2      
 E  R3      
 E  R4      
 E  R5      
 E  R6      
COLUMNS
    MARKER    'MARKER'                 'INTORG'
    I0(3)     OBJ       -57
    I0(3)     R0        -114
    I0(3)     R1        -138
    I0(3)     R6        1
    I1(4)     OBJ       -52
    I1(4)     R0        37
    I1(4)     R1        167
    I1(4)     R3        -1
    I1(4)     R6        1
    MARKER    'MARKER'                 'INTEND'
    C2(4)     OBJ       -3
    C2(4)     R0        -5
    C2(4)     R1        -6
    C2(4)     R3        6
    C2(4)     R4        3
    C3(5)     R0        2
    C3(5)     R1        3
    C3(5)     R2        6
    C3(5)     R4        10
    C3(5)     R5        5
    C4(4)     OBJ       1
    C4(4)     R0        6
    C4(4)     R1        2
    C4(4)     R2        2
    C4(4)     R5        9
    C5(1)     R2        1
    C6(1)     R3        1
    C7(1)     R4        1
    C8(1)     R5        1
    C9(1)     R6        1
RHS
    RHS1      R0        -45
    RHS1      R1        -54
    RHS1      R2        93
    RHS1      R3        54
    RHS1      R4        99
    RHS1      R5        75
BOUNDS
 UP BND1      I0(3)     1
 UP BND1      I1(4)     1
ENDATA
